% Auto-generated by scripts/generate_dzn.py
% problem_type   = regex
% instance       = regex_32
% source_json    = instances_json/1_medium_blowup/regex_32.json
% blowup         = 4.25
% representation = DFA

mode = 0;

var_count = 9;
Q = 34;
S = 3;
q0 = 1;
F = {22, 23, 24, 25, 26, 27, 28, 29, 30, 31, 32, 33, 34};
d_dfa = array2d(1..34, 1..3, [
  2, 1, 1,
  2, 1, 3,
  5, 4, 4,
  7, 6, 6,
  7, 6, 8,
  10, 9, 9,
  10, 9, 11,
  13, 12, 12,
  15, 14, 14,
  15, 14, 16,
  18, 17, 17,
  20, 19, 19,
  20, 19, 21,
  23, 22, 22,
  23, 22, 24,
  26, 25, 25,
  28, 27, 27,
  28, 27, 29,
  31, 30, 30,
  31, 30, 32,
  34, 33, 33,
  2, 1, 1,
  2, 1, 3,
  5, 4, 4,
  7, 6, 6,
  7, 6, 8,
  10, 9, 9,
  10, 9, 11,
  13, 12, 12,
  15, 14, 14,
  15, 14, 16,
  18, 17, 17,
  20, 19, 19,
  20, 19, 21
]);
d_nfa = array2d(1..34, 1..3, [
  {}, {}, {},
  {}, {}, {},
  {}, {}, {},
  {}, {}, {},
  {}, {}, {},
  {}, {}, {},
  {}, {}, {},
  {}, {}, {},
  {}, {}, {},
  {}, {}, {},
  {}, {}, {},
  {}, {}, {},
  {}, {}, {},
  {}, {}, {},
  {}, {}, {},
  {}, {}, {},
  {}, {}, {},
  {}, {}, {},
  {}, {}, {},
  {}, {}, {},
  {}, {}, {},
  {}, {}, {},
  {}, {}, {},
  {}, {}, {},
  {}, {}, {},
  {}, {}, {},
  {}, {}, {},
  {}, {}, {},
  {}, {}, {},
  {}, {}, {},
  {}, {}, {},
  {}, {}, {},
  {}, {}, {},
  {}, {}, {}
]);
